NAME : portcgen-25-30
COMMENT : portcgen N=25, seed=30
TYPE : TSP
DIMENSION : 25
EDGE_WEIGHT_TYPE : EUC_2D
NODE_COORD_SECTION
1 68 98
2 92 84
3 78 71
4 89 59
5 69 72
6 86 67
7 91 82
8 83 83
9 71 75
10 69 92
11 80 93
12 80 78
13 81 88
14 62 76
15 83 79
16 87 95
17 67 70
18 79 59
19 67 65
20 85 63
21 55 71
22 78 82
23 98 86
24 77 63
25 81 67
